letting n =  10
letting blocks =  [[1, 1], [1, 2], [1, 5], [1, 6], [1, 10], [2, 3], [2, 4], [2, 5], [2, 8], [2, 9], [3, 1], [3, 3], [3, 8], [5, 1], [5, 5], [5, 7], [5, 8], [5, 10], [6, 5], [6, 10], [7, 3], [7, 4], [7, 5], [8, 1], [8, 3], [8, 8], [9, 1], [9, 4], [9, 6], [9, 7], [9, 10], [10, 3], [10, 4], [10, 5], [10, 6], [10, 9]]
